(declare-fun temp2423_2 () (_ BitVec 64))
(declare-fun temp2423_1 () (_ BitVec 64))
(declare-fun temp2423_4 () (_ BitVec 64))
(declare-fun temp2423_3 () (_ BitVec 64))
(declare-fun temp2423_6 () (_ BitVec 64))
(declare-fun temp2423_5 () (_ BitVec 64))
(declare-fun temp2423_8 () (_ BitVec 64))
(declare-fun temp2423_7 () (_ BitVec 64))
(declare-fun temp2423_10 () (_ BitVec 64))
(declare-fun temp2423_9 () (_ BitVec 64))
(declare-fun temp2423_11 () (_ BitVec 64))
(declare-fun var2363642 () (_ BitVec 64))
(declare-fun var2363650 () (_ BitVec 64))
(declare-fun temp2423_12 () (_ BitVec 64))
(declare-fun var3613786 () (_ BitVec 64))
(declare-fun temp2423_13 () (_ BitVec 64))
(declare-fun temp2423_15 () (_ BitVec 64))
(declare-fun temp2423_14 () (_ BitVec 64))
(assert (= temp2423_2 #x0000000000000000))
(assert (= temp2423_1 temp2423_2))
(assert (= temp2423_4 #x0000000000000000))
(assert (= temp2423_3 temp2423_4))
(assert (= temp2423_6 #x0000000000000000))
(assert (= temp2423_5 temp2423_6))
(assert (= temp2423_8 #x000000000000002b))
(assert (= temp2423_7 temp2423_8))
(assert (= temp2423_10 #x0000000000000001))
(assert (= temp2423_9 temp2423_10))
(assert (= temp2423_11 #x0000000000000001))
(assert (= var2363642 temp2423_11))
(assert (= var2363650 var2363642))
(assert (= temp2423_12 #x0000000000000000))
(assert (= var3613786 temp2423_12))
(assert (= temp2423_13 #x0000000000000000))
(assert (or false (= var3613786 temp2423_13)))
(assert (= temp2423_15 #x0000000000000001))
(assert (= temp2423_14 temp2423_15))
(model-add temp2423_2 () (_ BitVec 64) #x0000000000000000)
(model-add temp2423_1 () (_ BitVec 64) #x0000000000000000)
(model-add temp2423_4 () (_ BitVec 64) #x0000000000000000)
(model-add temp2423_3 () (_ BitVec 64) #x0000000000000000)
(model-add temp2423_6 () (_ BitVec 64) #x0000000000000000)
(model-add temp2423_5 () (_ BitVec 64) #x0000000000000000)
(model-add temp2423_8 () (_ BitVec 64) #x000000000000002b)
(model-add temp2423_7 () (_ BitVec 64) #x000000000000002b)
(model-add temp2423_10 () (_ BitVec 64) #x0000000000000001)
(model-add temp2423_9 () (_ BitVec 64) #x0000000000000001)
(model-add temp2423_11 () (_ BitVec 64) #x0000000000000001)
(model-add var2363642 () (_ BitVec 64) #x0000000000000001)
(model-add var2363650 () (_ BitVec 64) #x0000000000000001)
(model-add temp2423_12 () (_ BitVec 64) #x0000000000000000)
(model-add var3613786 () (_ BitVec 64) #x0000000000000000)
(model-add temp2423_13 () (_ BitVec 64) #x0000000000000000)





